<?xml version = "1.0" encoding="UTF-8" standalone="yes"?>
<CPLEXSolution version="1.2">
 <header
   problemName="IloCplex"
   solutionName="p0"
   solutionIndex="-1"
   objectiveValue="620568"
   solutionTypeValue="3"
   solutionTypeString="primal"
   solutionStatusValue="127"
   solutionStatusString="integer feasible solution"
   solutionMethodString="mip"
   primalFeasible="0"
   dualFeasible="0"
   writeLevel="3"/>
 <quality
   epInt="1.0000000000000001e-05"
   epRHS="9.9999999999999995e-07"
   maxIntInfeas="0"
   maxPrimalInfeas="0"
   maxX="884"
   maxSlack="8887"/>
 <variables>
  <variable index="0" value="884"/>
  <variable index="1" value="884"/>
  <variable index="3" value="884"/>
  <variable index="4" value="884"/>
  <variable index="5" value="884"/>
  <variable index="7" value="884"/>
  <variable index="10" value="884"/>
  <variable index="24" value="1"/>
  <variable index="148" value="1"/>
  <variable index="260" value="1"/>
  <variable index="373" value="1"/>
  <variable index="500" value="1"/>
  <variable index="540" value="1"/>
  <variable index="708" value="1"/>
  <variable index="764" value="1"/>
  <variable index="837" value="1"/>
  <variable index="915" value="1"/>
  <variable index="1039" value="1"/>
  <variable index="1128" value="1"/>
  <variable index="1274" value="1"/>
  <variable index="1326" value="1"/>
  <variable index="1447" value="1"/>
  <variable index="1536" value="1"/>
  <variable index="1680" value="1"/>
  <variable index="1796" value="1"/>
  <variable index="1863" value="1"/>
  <variable index="1997" value="1"/>
  <variable index="2098" value="1"/>
  <variable index="2130" value="1"/>
  <variable index="2223" value="1"/>
  <variable index="2353" value="1"/>
  <variable index="2425" value="1"/>
  <variable index="2520" value="1"/>
  <variable index="2646" value="1"/>
  <variable index="2755" value="1"/>
  <variable index="2899" value="1"/>
  <variable index="3003" value="1"/>
  <variable index="3084" value="1"/>
  <variable index="3141" value="1"/>
  <variable index="3229" value="1"/>
  <variable index="3316" value="1"/>
  <variable index="3513" value="1"/>
  <variable index="3614" value="1"/>
  <variable index="3670" value="1"/>
  <variable index="3767" value="1"/>
  <variable index="3838" value="1"/>
  <variable index="3977" value="1"/>
  <variable index="4042" value="1"/>
  <variable index="4209" value="1"/>
  <variable index="4304" value="1"/>
  <variable index="4395" value="1"/>
  <variable index="4492" value="1"/>
  <variable index="4517" value="1"/>
  <variable index="4690" value="1"/>
  <variable index="4793" value="1"/>
  <variable index="4833" value="1"/>
  <variable index="4922" value="1"/>
  <variable index="5068" value="1"/>
  <variable index="5175" value="1"/>
  <variable index="5252" value="1"/>
  <variable index="5365" value="1"/>
  <variable index="5505" value="1"/>
  <variable index="5551" value="1"/>
  <variable index="5702" value="1"/>
  <variable index="5810" value="1"/>
  <variable index="5818" value="1"/>
  <variable index="5927" value="1"/>
  <variable index="6066" value="1"/>
  <variable index="6187" value="1"/>
  <variable index="6254" value="1"/>
  <variable index="6406" value="1"/>
  <variable index="6511" value="1"/>
  <variable index="6531" value="1"/>
  <variable index="6685" value="1"/>
  <variable index="6812" value="1"/>
  <variable index="6889" value="1"/>
  <variable index="6945" value="1"/>
  <variable index="7081" value="1"/>
  <variable index="7191" value="1"/>
  <variable index="7276" value="1"/>
  <variable index="7407" value="1"/>
  <variable index="7483" value="1"/>
  <variable index="7561" value="1"/>
  <variable index="7686" value="1"/>
  <variable index="7759" value="1"/>
  <variable index="7862" value="1"/>
  <variable index="8001" value="1"/>
  <variable index="8058" value="1"/>
  <variable index="8132" value="1"/>
  <variable index="8234" value="1"/>
  <variable index="8335" value="1"/>
  <variable index="8443" value="1"/>
  <variable index="8519" value="1"/>
  <variable index="8694" value="1"/>
  <variable index="8771" value="1"/>
  <variable index="8844" value="1"/>
  <variable index="8957" value="1"/>
  <variable index="9069" value="1"/>
  <variable index="9178" value="1"/>
  <variable index="9288" value="1"/>
  <variable index="9321" value="1"/>
  <variable index="9456" value="1"/>
  <variable index="9572" value="1"/>
  <variable index="9679" value="1"/>
  <variable index="9782" value="1"/>
  <variable index="9849" value="1"/>
  <variable index="9950" value="1"/>
  <variable index="10015" value="1"/>
  <variable index="10017" value="1"/>
  <variable index="10018" value="1"/>
  <variable index="10019" value="1"/>
  <variable index="10021" value="1"/>
  <variable index="10024" value="1"/>
 </variables>
</CPLEXSolution>
